1099
1   1   0    96   0 72 23 67 56 21 0
1   2   0    95   0 96 5 84 17 61 100 42 57 2 0
1   3   0    97   0 4 54 24 55 25 39 75 0
1   4   0    40   0 73 74 22 41 0
1   5   0    96   0 13 94 95 87 0
1   6   0    96   0 14 86 16 93 0
1   7   0    100  0 15 43 38 44 91 98 59 97 0
1   8   0    100  0 80 68 29 3 77 76 40 0
2   1   0    66   0 27 89 60 83 18 52 0
2   2   0    95   0 7 48 36 49 62 0
2   3   0    98   0 1 33 81 78 34 35 9 51 0
2   4   0    95   0 53 58 92 37 85 99 6 0
2   5   0    95   0 70 30 20 66 65 71 0
2   6   0    95   0 88 19 47 46 45 8 82 0
2   7   0    94   0 69 28 26 12 79 50 0
2   8   0    100  0 32 90 63 64 11 10 31 0